p cnf 100 30
x 3 -4 -5 -7 8 9 -13 16 -18 19 20 21 23 -25 -27 -30 -32 34 -35 -40 -42 -44 -46 -48 -50 -51 -52 -53 54 55 56 60 -61 62 63 64 -66 67 -70 73 -77 80 82 83 -84 -85 -86 -87 -90 92 94 -95 96 -97 -100 0
x 1 2 5 6 -8 9 -10 11 16 17 18 -21 -24 -25 28 -29 -30 31 35 -36 -37 -39 -40 -42 -44 -45 47 49 -50 51 52 54 -55 56 -57 58 62 -63 65 -70 72 74 -75 76 77 -79 80 83 84 85 -86 -88 89 -90 -93 0
x 1 -3 7 -8 -9 12 15 -18 19 24 -25 -26 27 -28 33 -34 -35 -36 -43 46 -50 54 55 -56 58 -60 -61 63 64 67 -69 -71 72 -73 75 -77 -78 -79 81 82 83 85 87 91 92 -94 -95 -96 98 -100 0
x -2 3 -4 -7 8 10 -12 13 14 -15 16 21 23 -24 -25 28 -33 36 39 -41 42 -46 -48 -49 50 -51 56 57 -58 59 -61 -62 -63 -64 65 -67 69 71 -75 -77 78 -79 81 -84 -85 87 88 91 92 -94 -96 97 100 0
x 1 -2 3 -4 -5 -10 14 -15 18 -19 20 22 24 25 -27 28 -30 -31 -32 34 35 -36 37 43 -44 -45 46 -47 -48 -52 -53 -54 -55 -59 60 63 -64 67 -68 70 73 -76 77 -78 79 80 -83 -86 88 90 92 -97 -100 0
x -1 3 5 -6 8 -9 -12 16 -18 19 20 22 25 26 -27 -28 30 -32 35 -40 -41 44 46 49 -50 -51 55 59 -60 -63 -64 -65 -67 -69 70 72 -73 76 -83 84 -93 95 -96 -98 100 0
x -5 -11 12 -13 14 -16 -17 18 22 25 26 27 -28 -29 -35 -40 -41 -44 48 49 50 52 -53 54 -58 -59 61 -62 63 72 73 75 76 -77 80 82 83 84 -85 86 -91 -92 97 98 100 0
x -1 -5 6 13 15 -19 21 24 29 -30 -32 34 -35 -36 37 38 39 -40 41 -42 46 47 48 -49 50 -52 56 57 58 63 64 67 -68 70 -75 77 -78 -80 -81 84 86 87 -90 92 96 99 0
x -1 4 5 6 11 12 14 -19 28 -30 32 -33 -36 -39 -40 42 44 -45 -48 -49 -50 -56 57 58 -59 -60 64 65 -68 69 -73 -74 76 -77 79 -80 85 86 88 -89 95 96 -97 -98 100 0
x -1 -3 6 8 10 -14 -15 16 -17 -18 19 20 -21 26 -29 31 -32 34 35 37 38 40 -41 48 50 -52 -56 -57 58 -59 60 63 -64 65 66 67 69 71 72 74 76 79 82 84 -85 -88 89 -91 92 93 -95 -96 -98 -99 -100 0
x 8 -11 -12 14 16 18 -19 22 23 25 28 -30 -32 33 -35 -37 -38 39 -40 -41 -44 -45 -46 47 48 49 50 -53 54 -59 60 61 62 -63 64 66 -67 68 70 -73 82 83 85 -86 87 -88 -89 -90 91 -93 96 -99 0
x 1 2 -7 11 12 -15 -16 -18 19 -23 25 -28 -29 -31 33 34 -35 -38 -39 -41 -43 44 45 51 -52 54 -55 -56 -61 62 63 -65 66 -69 -70 71 -72 -73 -77 -78 -80 81 82 -87 -92 93 -94 95 -100 0
x -2 3 4 5 -6 -8 -9 -10 -13 16 17 -22 23 24 -25 28 -30 -32 -34 -38 39 -41 -42 -43 -44 -46 -54 -57 -58 59 -63 64 67 69 -70 -71 -72 74 -75 -79 80 -83 88 96 -99 0
x -1 -2 -3 -4 -5 8 -9 -10 13 17 18 -21 -26 27 30 31 34 35 -37 39 40 46 50 -51 -52 55 57 58 59 -60 63 66 -67 71 72 73 74 75 -76 77 79 80 82 84 89 -93 -94 -95 -97 98 0
x -2 -3 5 -6 -7 11 12 -13 14 -15 -19 -21 22 26 -27 -30 31 32 -34 -35 -36 -37 40 46 47 49 54 56 -57 -58 59 -60 -61 -63 64 -66 -67 70 -72 -73 76 77 -82 -90 92 -93 -95 96 100 0
x -1 6 -7 -8 9 -13 16 17 18 -19 -20 21 22 24 -25 -27 -28 30 -32 -33 -34 35 -36 -39 -41 47 48 49 -56 59 60 63 65 -66 -67 -68 -69 -70 73 74 -75 -76 -77 78 79 -80 -82 83 84 86 -87 89 -90 93 94 95 -96 -97 99 0
x -2 -4 -6 9 -13 14 15 -16 -17 19 20 21 25 26 -27 -29 -33 35 -36 38 40 -41 -42 44 48 -50 51 53 -54 56 57 60 -62 63 -64 -66 67 72 -74 75 -77 78 79 80 81 -84 88 -90 92 94 95 -98 99 -100 0
x -1 -2 -5 7 -9 -12 14 15 16 17 20 21 -22 -24 -26 31 35 39 -41 -45 46 47 -48 49 51 52 53 -54 -55 -56 58 -60 63 -64 -65 -66 -69 -72 73 77 -78 -81 86 -94 -95 96 97 -99 0
x -1 -4 7 8 -9 10 14 16 20 -21 -24 -25 -26 27 -28 31 34 35 -36 40 -41 42 45 46 47 -56 -57 -58 -61 -64 66 -67 -68 -69 -70 -71 72 73 -81 -82 -84 -86 -87 -88 89 90 91 93 94 96 -98 0
x 1 -3 -5 6 8 11 15 -17 -18 -21 25 -26 -29 -30 31 32 35 36 38 40 -41 43 -44 -46 47 -48 49 -50 51 -52 53 55 -56 57 -59 60 -61 65 69 70 71 -74 -76 77 78 79 -80 82 83 -85 -86 -88 -91 93 95 -96 97 -99 100 0
x -4 6 -7 -10 -12 14 15 16 -17 -19 21 22 23 -25 26 -27 -28 37 -39 40 45 -47 -49 -52 -55 56 57 58 -60 -61 63 67 70 71 76 -79 -83 84 -85 -88 -89 91 93 94 -97 -99 0
x 1 2 3 4 -5 -7 8 -9 10 11 12 16 -17 -18 -19 -20 -23 26 28 -29 -33 -34 36 37 38 -39 -40 42 43 46 51 52 -53 56 -57 -58 -60 61 -62 -63 64 -66 67 68 71 -73 74 75 76 -78 -80 -81 -83 -89 91 -92 -94 95 96 0
x 5 7 13 14 -15 -18 -19 -26 -27 28 34 -36 38 41 -42 -43 44 -45 -46 -47 -48 50 51 52 53 55 -61 62 65 66 -67 68 69 72 76 78 -79 80 -82 83 85 86 -87 88 89 -90 92 94 95 -97 0
x -3 -4 8 11 13 16 -17 18 21 23 -24 -27 -28 32 33 -35 -38 42 -44 -45 -49 51 -54 56 -58 -63 66 -68 69 74 -76 -81 -82 83 -85 89 91 -93 94 95 -98 0
x 1 -2 -6 7 9 10 12 -13 -15 23 25 27 -28 -29 30 -32 -37 38 -41 42 -43 48 49 -50 51 58 59 62 -63 64 68 69 71 -72 -73 -76 80 -83 84 86 -87 88 -89 91 92 93 -96 -97 98 99 0
x -3 4 6 8 14 -16 -19 20 22 -25 -27 28 29 30 -31 -32 -33 -40 -42 43 44 45 -46 50 -51 52 -53 -54 -55 56 -58 -59 -66 67 -69 73 80 -82 -83 85 86 92 -93 94 96 -98 0
x -1 3 6 8 -9 -10 -11 13 16 -17 -18 21 22 -26 -27 31 -32 -33 -34 36 37 -40 -44 -45 47 49 -50 -51 -52 -54 55 -61 62 64 66 -71 72 -73 76 -77 79 -84 -85 91 93 94 95 99 0
x -1 3 4 -6 -10 -15 16 17 -18 -20 -25 26 27 28 -31 32 33 37 -38 40 -42 -43 -44 47 -51 53 55 -56 -60 -61 -66 68 69 70 -71 72 76 78 79 -81 87 -89 -90 -95 96 97 -98 -99 -100 0
x 1 -3 -4 5 6 -9 10 -11 -12 13 -15 -18 -20 -21 -22 -26 27 30 31 32 -35 36 38 -39 -46 47 -50 53 -58 59 62 64 66 67 70 71 -73 77 -78 -83 84 -86 -88 -92 -93 94 97 -98 0
x 1 -2 6 7 -8 9 -10 -11 -12 13 17 -20 24 26 28 -31 -32 33 -36 -37 -39 -40 41 44 -46 47 -49 50 55 -56 59 60 61 62 65 -68 -71 -73 -74 75 -76 -78 79 -81 83 -85 -87 89 -92 94 96 98 99 0
g -40